NAME 
OBJSENSE MAX
ROWS
 N  OBJ
 L  packing[0]
 L  packing[1]
 L  packing[2]
 L  packing[3]
 L  packing[4]
 L  packing[5]
 L  packing[6]
 L  packing[7]
 L  packing[8]
 L  packing[9]
 L  packing[10]
 L  packing[11]
 L  packing[12]
 L  packing[13]
 L  packing[14]
 L  packing[15]
 L  packing[16]
 L  packing[17]
 L  packing[18]
 L  packing[19]
 L  packing[20]
 L  packing[21]
 L  packing[22]
 L  packing[23]
 L  packing[24]
 L  packing[25]
 L  packing[26]
 L  packing[27]
 L  packing[28]
 L  packing[29]
 L  packing[30]
 L  packing[31]
 L  packing[32]
 L  packing[33]
 L  packing[34]
 L  packing[35]
 L  packing[36]
 L  packing[37]
 L  packing[38]
 L  packing[39]
 L  packing[40]
 L  packing[41]
 L  packing[42]
 L  packing[43]
 L  packing[44]
 L  packing[45]
 L  packing[46]
 L  packing[47]
 L  packing[48]
 L  packing[49]
COLUMNS
    MARKER    'MARKER'                 'INTORG'
    x[1]      OBJ       159
    x[1]      packing[0]  112
    x[1]      packing[1]  93
    x[1]      packing[2]  128
    x[1]      packing[3]  47
    x[1]      packing[4]  48
    x[1]      packing[5]  89
    x[1]      packing[9]  105
    x[1]      packing[10]  29
    x[1]      packing[12]  12
    x[1]      packing[13]  179
    x[1]      packing[15]  69
    x[1]      packing[16]  79
    x[1]      packing[18]  125
    x[1]      packing[20]  52
    x[1]      packing[21]  114
    x[1]      packing[22]  157
    x[1]      packing[23]  123
    x[1]      packing[24]  42
    x[1]      packing[25]  85
    x[1]      packing[27]  151
    x[1]      packing[28]  186
    x[1]      packing[29]  182
    x[1]      packing[30]  114
    x[1]      packing[31]  152
    x[1]      packing[34]  84
    x[1]      packing[37]  54
    x[1]      packing[38]  61
    x[1]      packing[39]  47
    x[1]      packing[40]  14
    x[1]      packing[41]  78
    x[1]      packing[42]  185
    x[1]      packing[43]  133
    x[1]      packing[44]  83
    x[1]      packing[45]  149
    x[1]      packing[46]  108
    x[1]      packing[47]  134
    x[1]      packing[48]  36
    x[1]      packing[49]  118
    x[2]      OBJ       111
    x[2]      packing[0]  174
    x[2]      packing[1]  25
    x[2]      packing[2]  42
    x[2]      packing[3]  41
    x[2]      packing[7]  116
    x[2]      packing[8]  153
    x[2]      packing[9]  106
    x[2]      packing[10]  48
    x[2]      packing[11]  185
    x[2]      packing[12]  76
    x[2]      packing[13]  87
    x[2]      packing[14]  78
    x[2]      packing[16]  115
    x[2]      packing[17]  83
    x[2]      packing[18]  69
    x[2]      packing[19]  150
    x[2]      packing[20]  140
    x[2]      packing[21]  168
    x[2]      packing[23]  190
    x[2]      packing[25]  90
    x[2]      packing[26]  116
    x[2]      packing[27]  125
    x[2]      packing[30]  154
    x[2]      packing[31]  86
    x[2]      packing[32]  150
    x[2]      packing[33]  73
    x[2]      packing[35]  97
    x[2]      packing[36]  91
    x[2]      packing[37]  183
    x[2]      packing[38]  8
    x[2]      packing[39]  25
    x[2]      packing[40]  112
    x[2]      packing[42]  126
    x[2]      packing[43]  30
    x[2]      packing[44]  181
    x[2]      packing[45]  70
    x[2]      packing[46]  136
    x[2]      packing[48]  59
    x[3]      OBJ       69
    x[3]      packing[0]  183
    x[3]      packing[2]  132
    x[3]      packing[3]  76
    x[3]      packing[4]  191
    x[3]      packing[5]  101
    x[3]      packing[6]  188
    x[3]      packing[7]  42
    x[3]      packing[9]  84
    x[3]      packing[10]  186
    x[3]      packing[11]  117
    x[3]      packing[12]  198
    x[3]      packing[13]  60
    x[3]      packing[15]  123
    x[3]      packing[17]  109
    x[3]      packing[18]  1
    x[3]      packing[20]  111
    x[3]      packing[21]  92
    x[3]      packing[22]  139
    x[3]      packing[23]  73
    x[3]      packing[24]  79
    x[3]      packing[25]  65
    x[3]      packing[26]  69
    x[3]      packing[27]  114
    x[3]      packing[28]  64
    x[3]      packing[30]  122
    x[3]      packing[32]  106
    x[3]      packing[33]  172
    x[3]      packing[34]  75
    x[3]      packing[36]  27
    x[3]      packing[37]  188
    x[3]      packing[38]  119
    x[3]      packing[40]  156
    x[3]      packing[42]  69
    x[3]      packing[43]  29
    x[3]      packing[44]  73
    x[3]      packing[45]  9
    x[3]      packing[47]  195
    x[3]      packing[48]  161
    x[3]      packing[49]  161
    x[4]      OBJ       147
    x[4]      packing[1]  95
    x[4]      packing[2]  145
    x[4]      packing[3]  15
    x[4]      packing[6]  30
    x[4]      packing[7]  183
    x[4]      packing[8]  96
    x[4]      packing[10]  28
    x[4]      packing[12]  114
    x[4]      packing[13]  143
    x[4]      packing[14]  21
    x[4]      packing[15]  171
    x[4]      packing[16]  1
    x[4]      packing[17]  8
    x[4]      packing[18]  44
    x[4]      packing[19]  150
    x[4]      packing[20]  106
    x[4]      packing[22]  159
    x[4]      packing[23]  155
    x[4]      packing[24]  98
    x[4]      packing[25]  42
    x[4]      packing[26]  1
    x[4]      packing[27]  20
    x[4]      packing[28]  171
    x[4]      packing[29]  70
    x[4]      packing[30]  113
    x[4]      packing[31]  170
    x[4]      packing[32]  158
    x[4]      packing[34]  105
    x[4]      packing[37]  179
    x[4]      packing[39]  95
    x[4]      packing[41]  194
    x[4]      packing[42]  150
    x[4]      packing[44]  40
    x[4]      packing[45]  52
    x[4]      packing[46]  15
    x[4]      packing[47]  47
    x[4]      packing[48]  111
    x[4]      packing[49]  187
    x[5]      OBJ       192
    x[5]      packing[1]  119
    x[5]      packing[2]  146
    x[5]      packing[3]  4
    x[5]      packing[4]  9
    x[5]      packing[5]  120
    x[5]      packing[6]  134
    x[5]      packing[7]  100
    x[5]      packing[10]  44
    x[5]      packing[11]  72
    x[5]      packing[12]  103
    x[5]      packing[13]  187
    x[5]      packing[14]  148
    x[5]      packing[15]  28
    x[5]      packing[16]  164
    x[5]      packing[17]  178
    x[5]      packing[18]  117
    x[5]      packing[20]  82
    x[5]      packing[21]  107
    x[5]      packing[22]  123
    x[5]      packing[23]  12
    x[5]      packing[25]  56
    x[5]      packing[28]  117
    x[5]      packing[30]  101
    x[5]      packing[31]  30
    x[5]      packing[32]  95
    x[5]      packing[33]  179
    x[5]      packing[34]  113
    x[5]      packing[35]  26
    x[5]      packing[36]  174
    x[5]      packing[37]  29
    x[5]      packing[38]  30
    x[5]      packing[40]  175
    x[5]      packing[41]  91
    x[5]      packing[42]  193
    x[5]      packing[43]  60
    x[5]      packing[44]  135
    x[5]      packing[47]  185
    x[5]      packing[49]  134
    x[6]      OBJ       142
    x[6]      packing[0]  175
    x[6]      packing[1]  132
    x[6]      packing[2]  61
    x[6]      packing[3]  170
    x[6]      packing[4]  3
    x[6]      packing[6]  51
    x[6]      packing[8]  138
    x[6]      packing[9]  192
    x[6]      packing[10]  94
    x[6]      packing[11]  113
    x[6]      packing[12]  101
    x[6]      packing[13]  47
    x[6]      packing[14]  69
    x[6]      packing[16]  13
    x[6]      packing[17]  97
    x[6]      packing[18]  194
    x[6]      packing[19]  105
    x[6]      packing[20]  36
    x[6]      packing[21]  149
    x[6]      packing[22]  63
    x[6]      packing[23]  18
    x[6]      packing[24]  47
    x[6]      packing[25]  20
    x[6]      packing[26]  198
    x[6]      packing[27]  101
    x[6]      packing[28]  58
    x[6]      packing[29]  12
    x[6]      packing[30]  49
    x[6]      packing[34]  30
    x[6]      packing[35]  97
    x[6]      packing[36]  26
    x[6]      packing[37]  56
    x[6]      packing[38]  191
    x[6]      packing[39]  29
    x[6]      packing[40]  31
    x[6]      packing[42]  139
    x[6]      packing[43]  85
    x[6]      packing[44]  155
    x[6]      packing[46]  134
    x[6]      packing[47]  173
    x[6]      packing[48]  66
    x[6]      packing[49]  21
    x[7]      OBJ       159
    x[7]      packing[1]  176
    x[7]      packing[2]  105
    x[7]      packing[3]  30
    x[7]      packing[4]  78
    x[7]      packing[5]  40
    x[7]      packing[6]  47
    x[7]      packing[7]  52
    x[7]      packing[8]  78
    x[7]      packing[9]  147
    x[7]      packing[11]  73
    x[7]      packing[12]  139
    x[7]      packing[13]  180
    x[7]      packing[14]  138
    x[7]      packing[15]  9
    x[7]      packing[16]  31
    x[7]      packing[17]  128
    x[7]      packing[18]  38
    x[7]      packing[19]  100
    x[7]      packing[20]  104
    x[7]      packing[21]  119
    x[7]      packing[22]  165
    x[7]      packing[23]  171
    x[7]      packing[24]  62
    x[7]      packing[25]  116
    x[7]      packing[27]  54
    x[7]      packing[28]  125
    x[7]      packing[29]  128
    x[7]      packing[30]  138
    x[7]      packing[31]  97
    x[7]      packing[32]  44
    x[7]      packing[34]  193
    x[7]      packing[37]  9
    x[7]      packing[38]  179
    x[7]      packing[39]  19
    x[7]      packing[40]  59
    x[7]      packing[41]  110
    x[7]      packing[42]  40
    x[7]      packing[43]  152
    x[7]      packing[44]  66
    x[7]      packing[45]  60
    x[7]      packing[46]  193
    x[7]      packing[47]  123
    x[7]      packing[48]  91
    x[7]      packing[49]  108
    x[8]      OBJ       80
    x[8]      packing[0]  146
    x[8]      packing[1]  139
    x[8]      packing[5]  192
    x[8]      packing[6]  152
    x[8]      packing[7]  100
    x[8]      packing[10]  57
    x[8]      packing[11]  21
    x[8]      packing[13]  127
    x[8]      packing[14]  163
    x[8]      packing[15]  23
    x[8]      packing[16]  130
    x[8]      packing[18]  184
    x[8]      packing[20]  132
    x[8]      packing[21]  85
    x[8]      packing[24]  119
    x[8]      packing[25]  120
    x[8]      packing[26]  173
    x[8]      packing[27]  199
    x[8]      packing[28]  51
    x[8]      packing[30]  135
    x[8]      packing[31]  32
    x[8]      packing[32]  182
    x[8]      packing[33]  185
    x[8]      packing[34]  17
    x[8]      packing[35]  141
    x[8]      packing[36]  90
    x[8]      packing[38]  41
    x[8]      packing[39]  75
    x[8]      packing[41]  175
    x[8]      packing[42]  17
    x[8]      packing[43]  167
    x[8]      packing[44]  131
    x[8]      packing[46]  148
    x[8]      packing[47]  149
    x[8]      packing[49]  163
    x[9]      OBJ       46
    x[9]      packing[0]  25
    x[9]      packing[1]  41
    x[9]      packing[3]  195
    x[9]      packing[4]  135
    x[9]      packing[5]  183
    x[9]      packing[6]  190
    x[9]      packing[7]  193
    x[9]      packing[9]  84
    x[9]      packing[10]  132
    x[9]      packing[11]  183
    x[9]      packing[12]  45
    x[9]      packing[13]  134
    x[9]      packing[15]  46
    x[9]      packing[16]  117
    x[9]      packing[17]  146
    x[9]      packing[18]  66
    x[9]      packing[19]  72
    x[9]      packing[20]  140
    x[9]      packing[21]  179
    x[9]      packing[22]  77
    x[9]      packing[23]  93
    x[9]      packing[25]  112
    x[9]      packing[27]  148
    x[9]      packing[28]  117
    x[9]      packing[29]  84
    x[9]      packing[30]  125
    x[9]      packing[31]  86
    x[9]      packing[33]  160
    x[9]      packing[34]  8
    x[9]      packing[38]  19
    x[9]      packing[39]  124
    x[9]      packing[40]  27
    x[9]      packing[41]  157
    x[9]      packing[42]  63
    x[9]      packing[43]  197
    x[9]      packing[44]  179
    x[9]      packing[45]  85
    x[9]      packing[47]  38
    x[9]      packing[48]  9
    x[9]      packing[49]  4
    x[10]     OBJ       83
    x[10]     packing[0]  25
    x[10]     packing[1]  168
    x[10]     packing[2]  52
    x[10]     packing[4]  105
    x[10]     packing[5]  20
    x[10]     packing[6]  156
    x[10]     packing[7]  18
    x[10]     packing[8]  140
    x[10]     packing[9]  17
    x[10]     packing[10]  14
    x[10]     packing[11]  159
    x[10]     packing[13]  171
    x[10]     packing[14]  64
    x[10]     packing[17]  109
    x[10]     packing[18]  114
    x[10]     packing[20]  69
    x[10]     packing[21]  76
    x[10]     packing[22]  188
    x[10]     packing[24]  102
    x[10]     packing[25]  125
    x[10]     packing[27]  183
    x[10]     packing[28]  40
    x[10]     packing[29]  126
    x[10]     packing[30]  132
    x[10]     packing[31]  29
    x[10]     packing[35]  157
    x[10]     packing[36]  38
    x[10]     packing[37]  63
    x[10]     packing[43]  29
    x[10]     packing[44]  5
    x[10]     packing[46]  30
    x[10]     packing[47]  163
    x[10]     packing[48]  93
    x[10]     packing[49]  160
    x[11]     OBJ       56
    x[11]     packing[0]  94
    x[11]     packing[1]  60
    x[11]     packing[2]  146
    x[11]     packing[4]  135
    x[11]     packing[6]  96
    x[11]     packing[7]  101
    x[11]     packing[9]  70
    x[11]     packing[10]  94
    x[11]     packing[13]  126
    x[11]     packing[14]  189
    x[11]     packing[15]  180
    x[11]     packing[16]  182
    x[11]     packing[17]  98
    x[11]     packing[19]  45
    x[11]     packing[20]  93
    x[11]     packing[21]  194
    x[11]     packing[22]  116
    x[11]     packing[23]  113
    x[11]     packing[24]  35
    x[11]     packing[26]  161
    x[11]     packing[27]  164
    x[11]     packing[28]  78
    x[11]     packing[29]  155
    x[11]     packing[31]  156
    x[11]     packing[32]  168
    x[11]     packing[33]  198
    x[11]     packing[34]  23
    x[11]     packing[35]  60
    x[11]     packing[36]  94
    x[11]     packing[37]  166
    x[11]     packing[39]  104
    x[11]     packing[41]  125
    x[11]     packing[42]  175
    x[11]     packing[43]  168
    x[11]     packing[44]  177
    x[11]     packing[45]  106
    x[11]     packing[46]  112
    x[11]     packing[47]  197
    x[11]     packing[48]  185
    x[12]     OBJ       99
    x[12]     packing[1]  38
    x[12]     packing[2]  104
    x[12]     packing[3]  180
    x[12]     packing[4]  25
    x[12]     packing[5]  104
    x[12]     packing[6]  32
    x[12]     packing[7]  112
    x[12]     packing[9]  127
    x[12]     packing[11]  141
    x[12]     packing[12]  156
    x[12]     packing[13]  52
    x[12]     packing[14]  68
    x[12]     packing[15]  81
    x[12]     packing[18]  6
    x[12]     packing[19]  185
    x[12]     packing[21]  17
    x[12]     packing[22]  3
    x[12]     packing[23]  152
    x[12]     packing[24]  71
    x[12]     packing[27]  81
    x[12]     packing[28]  190
    x[12]     packing[29]  124
    x[12]     packing[30]  83
    x[12]     packing[31]  92
    x[12]     packing[32]  27
    x[12]     packing[33]  2
    x[12]     packing[34]  67
    x[12]     packing[35]  79
    x[12]     packing[36]  56
    x[12]     packing[37]  182
    x[12]     packing[38]  97
    x[12]     packing[39]  63
    x[12]     packing[40]  128
    x[12]     packing[41]  38
    x[12]     packing[42]  142
    x[12]     packing[43]  182
    x[12]     packing[44]  165
    x[12]     packing[47]  70
    x[12]     packing[48]  124
    x[12]     packing[49]  1
    x[13]     OBJ       177
    x[13]     packing[0]  2
    x[13]     packing[1]  165
    x[13]     packing[2]  178
    x[13]     packing[3]  82
    x[13]     packing[4]  120
    x[13]     packing[7]  128
    x[13]     packing[8]  34
    x[13]     packing[9]  63
    x[13]     packing[10]  190
    x[13]     packing[11]  21
    x[13]     packing[13]  85
    x[13]     packing[14]  115
    x[13]     packing[15]  137
    x[13]     packing[16]  38
    x[13]     packing[17]  62
    x[13]     packing[19]  24
    x[13]     packing[20]  96
    x[13]     packing[23]  106
    x[13]     packing[24]  9
    x[13]     packing[26]  70
    x[13]     packing[28]  33
    x[13]     packing[29]  53
    x[13]     packing[30]  127
    x[13]     packing[31]  180
    x[13]     packing[32]  124
    x[13]     packing[33]  141
    x[13]     packing[34]  198
    x[13]     packing[35]  135
    x[13]     packing[36]  111
    x[13]     packing[37]  165
    x[13]     packing[38]  94
    x[13]     packing[42]  168
    x[13]     packing[43]  142
    x[13]     packing[44]  163
    x[13]     packing[45]  53
    x[13]     packing[47]  152
    x[13]     packing[49]  82
    x[14]     OBJ       88
    x[14]     packing[0]  39
    x[14]     packing[1]  197
    x[14]     packing[2]  78
    x[14]     packing[3]  150
    x[14]     packing[4]  116
    x[14]     packing[5]  134
    x[14]     packing[7]  131
    x[14]     packing[8]  124
    x[14]     packing[10]  23
    x[14]     packing[13]  69
    x[14]     packing[14]  168
    x[14]     packing[15]  119
    x[14]     packing[18]  165
    x[14]     packing[19]  158
    x[14]     packing[20]  123
    x[14]     packing[21]  61
    x[14]     packing[25]  44
    x[14]     packing[27]  30
    x[14]     packing[28]  87
    x[14]     packing[29]  133
    x[14]     packing[30]  152
    x[14]     packing[31]  137
    x[14]     packing[32]  134
    x[14]     packing[33]  197
    x[14]     packing[35]  124
    x[14]     packing[37]  177
    x[14]     packing[38]  150
    x[14]     packing[39]  33
    x[14]     packing[40]  174
    x[14]     packing[41]  135
    x[14]     packing[42]  31
    x[14]     packing[43]  136
    x[14]     packing[44]  164
    x[14]     packing[45]  1
    x[14]     packing[46]  95
    x[14]     packing[47]  192
    x[15]     OBJ       186
    x[15]     packing[0]  169
    x[15]     packing[1]  67
    x[15]     packing[3]  38
    x[15]     packing[5]  40
    x[15]     packing[6]  164
    x[15]     packing[7]  167
    x[15]     packing[8]  105
    x[15]     packing[9]  29
    x[15]     packing[10]  169
    x[15]     packing[11]  14
    x[15]     packing[12]  13
    x[15]     packing[13]  83
    x[15]     packing[14]  30
    x[15]     packing[16]  19
    x[15]     packing[18]  16
    x[15]     packing[21]  21
    x[15]     packing[22]  87
    x[15]     packing[23]  61
    x[15]     packing[24]  172
    x[15]     packing[25]  188
    x[15]     packing[27]  41
    x[15]     packing[28]  156
    x[15]     packing[29]  109
    x[15]     packing[30]  126
    x[15]     packing[31]  169
    x[15]     packing[32]  36
    x[15]     packing[33]  166
    x[15]     packing[34]  10
    x[15]     packing[36]  101
    x[15]     packing[37]  31
    x[15]     packing[38]  193
    x[15]     packing[39]  38
    x[15]     packing[40]  35
    x[15]     packing[41]  148
    x[15]     packing[42]  133
    x[15]     packing[44]  115
    x[15]     packing[45]  7
    x[15]     packing[46]  111
    x[15]     packing[47]  105
    x[15]     packing[49]  173
    x[16]     OBJ       160
    x[16]     packing[0]  124
    x[16]     packing[1]  132
    x[16]     packing[2]  70
    x[16]     packing[3]  19
    x[16]     packing[4]  16
    x[16]     packing[5]  68
    x[16]     packing[6]  144
    x[16]     packing[7]  147
    x[16]     packing[8]  139
    x[16]     packing[9]  176
    x[16]     packing[10]  182
    x[16]     packing[11]  166
    x[16]     packing[13]  127
    x[16]     packing[14]  189
    x[16]     packing[15]  172
    x[16]     packing[16]  14
    x[16]     packing[17]  33
    x[16]     packing[18]  172
    x[16]     packing[20]  128
    x[16]     packing[23]  186
    x[16]     packing[24]  190
    x[16]     packing[25]  125
    x[16]     packing[26]  185
    x[16]     packing[27]  166
    x[16]     packing[29]  111
    x[16]     packing[30]  131
    x[16]     packing[31]  88
    x[16]     packing[33]  125
    x[16]     packing[34]  187
    x[16]     packing[35]  184
    x[16]     packing[36]  81
    x[16]     packing[37]  11
    x[16]     packing[38]  40
    x[16]     packing[39]  80
    x[16]     packing[40]  13
    x[16]     packing[41]  87
    x[16]     packing[42]  62
    x[16]     packing[44]  19
    x[16]     packing[45]  167
    x[16]     packing[46]  48
    x[16]     packing[47]  24
    x[16]     packing[48]  107
    x[16]     packing[49]  164
    x[17]     OBJ       53
    x[17]     packing[0]  57
    x[17]     packing[3]  167
    x[17]     packing[4]  29
    x[17]     packing[5]  170
    x[17]     packing[7]  168
    x[17]     packing[8]  69
    x[17]     packing[9]  1
    x[17]     packing[10]  121
    x[17]     packing[13]  140
    x[17]     packing[14]  196
    x[17]     packing[15]  22
    x[17]     packing[16]  64
    x[17]     packing[17]  88
    x[17]     packing[19]  118
    x[17]     packing[20]  26
    x[17]     packing[21]  13
    x[17]     packing[22]  129
    x[17]     packing[23]  93
    x[17]     packing[24]  26
    x[17]     packing[25]  56
    x[17]     packing[26]  11
    x[17]     packing[27]  2
    x[17]     packing[28]  36
    x[17]     packing[29]  158
    x[17]     packing[30]  16
    x[17]     packing[31]  129
    x[17]     packing[32]  82
    x[17]     packing[33]  159
    x[17]     packing[34]  175
    x[17]     packing[35]  133
    x[17]     packing[36]  6
    x[17]     packing[37]  62
    x[17]     packing[38]  170
    x[17]     packing[39]  194
    x[17]     packing[40]  22
    x[17]     packing[41]  129
    x[17]     packing[42]  21
    x[17]     packing[43]  149
    x[17]     packing[44]  121
    x[17]     packing[45]  93
    x[17]     packing[47]  153
    x[17]     packing[48]  108
    x[17]     packing[49]  80
    x[18]     OBJ       176
    x[18]     packing[1]  66
    x[18]     packing[2]  115
    x[18]     packing[3]  139
    x[18]     packing[4]  168
    x[18]     packing[7]  9
    x[18]     packing[8]  173
    x[18]     packing[9]  126
    x[18]     packing[12]  109
    x[18]     packing[13]  199
    x[18]     packing[14]  84
    x[18]     packing[16]  165
    x[18]     packing[17]  80
    x[18]     packing[18]  141
    x[18]     packing[19]  124
    x[18]     packing[20]  59
    x[18]     packing[24]  46
    x[18]     packing[25]  146
    x[18]     packing[26]  92
    x[18]     packing[27]  56
    x[18]     packing[28]  38
    x[18]     packing[29]  13
    x[18]     packing[30]  190
    x[18]     packing[31]  116
    x[18]     packing[32]  149
    x[18]     packing[34]  79
    x[18]     packing[36]  42
    x[18]     packing[37]  94
    x[18]     packing[40]  27
    x[18]     packing[42]  144
    x[18]     packing[43]  144
    x[18]     packing[45]  181
    x[18]     packing[46]  106
    x[18]     packing[48]  105
    x[18]     packing[49]  101
    x[19]     OBJ       141
    x[19]     packing[1]  34
    x[19]     packing[2]  124
    x[19]     packing[7]  181
    x[19]     packing[8]  108
    x[19]     packing[9]  41
    x[19]     packing[10]  154
    x[19]     packing[11]  188
    x[19]     packing[12]  186
    x[19]     packing[13]  23
    x[19]     packing[14]  199
    x[19]     packing[16]  106
    x[19]     packing[17]  99
    x[19]     packing[18]  156
    x[19]     packing[21]  35
    x[19]     packing[23]  188
    x[19]     packing[24]  151
    x[19]     packing[26]  155
    x[19]     packing[27]  132
    x[19]     packing[28]  121
    x[19]     packing[29]  96
    x[19]     packing[30]  68
    x[19]     packing[31]  104
    x[19]     packing[32]  144
    x[19]     packing[33]  53
    x[19]     packing[34]  63
    x[19]     packing[35]  186
    x[19]     packing[38]  38
    x[19]     packing[39]  93
    x[19]     packing[40]  36
    x[19]     packing[42]  86
    x[19]     packing[43]  188
    x[19]     packing[44]  53
    x[19]     packing[45]  51
    x[19]     packing[46]  72
    x[19]     packing[47]  16
    x[19]     packing[49]  132
    x[20]     OBJ       19
    x[20]     packing[0]  136
    x[20]     packing[2]  80
    x[20]     packing[3]  193
    x[20]     packing[4]  20
    x[20]     packing[5]  138
    x[20]     packing[6]  30
    x[20]     packing[7]  44
    x[20]     packing[8]  36
    x[20]     packing[9]  83
    x[20]     packing[10]  64
    x[20]     packing[11]  89
    x[20]     packing[12]  15
    x[20]     packing[13]  45
    x[20]     packing[14]  141
    x[20]     packing[15]  184
    x[20]     packing[16]  156
    x[20]     packing[17]  19
    x[20]     packing[18]  34
    x[20]     packing[19]  22
    x[20]     packing[20]  52
    x[20]     packing[21]  170
    x[20]     packing[22]  102
    x[20]     packing[23]  10
    x[20]     packing[24]  86
    x[20]     packing[25]  106
    x[20]     packing[26]  105
    x[20]     packing[27]  31
    x[20]     packing[28]  142
    x[20]     packing[31]  127
    x[20]     packing[32]  48
    x[20]     packing[33]  162
    x[20]     packing[34]  33
    x[20]     packing[36]  198
    x[20]     packing[39]  81
    x[20]     packing[40]  132
    x[20]     packing[43]  182
    x[20]     packing[44]  141
    x[20]     packing[46]  186
    x[20]     packing[47]  80
    x[20]     packing[49]  91
    MARKER    'MARKER'                 'INTEND'
RHS
    RHS1      packing[0]  731
    RHS1      packing[1]  874
    RHS1      packing[2]  853
    RHS1      packing[3]  773
    RHS1      packing[4]  599
    RHS1      packing[5]  700
    RHS1      packing[6]  707
    RHS1      packing[7]  996
    RHS1      packing[8]  697
    RHS1      packing[9]  726
    RHS1      packing[10]  815
    RHS1      packing[11]  771
    RHS1      packing[12]  634
    RHS1      packing[13]  1132
    RHS1      packing[14]  1030
    RHS1      packing[15]  682
    RHS1      packing[16]  697
    RHS1      packing[17]  669
    RHS1      packing[18]  821
    RHS1      packing[19]  627
    RHS1      packing[20]  775
    RHS1      packing[21]  800
    RHS1      packing[22]  754
    RHS1      packing[23]  872
    RHS1      packing[24]  668
    RHS1      packing[25]  748
    RHS1      packing[26]  668
    RHS1      packing[27]  899
    RHS1      packing[28]  905
    RHS1      packing[29]  777
    RHS1      packing[30]  1038
    RHS1      packing[31]  990
    RHS1      packing[32]  824
    RHS1      packing[33]  986
    RHS1      packing[34]  730
    RHS1      packing[35]  710
    RHS1      packing[36]  568
    RHS1      packing[37]  825
    RHS1      packing[38]  715
    RHS1      packing[39]  550
    RHS1      packing[40]  571
    RHS1      packing[41]  734
    RHS1      packing[42]  972
    RHS1      packing[43]  1087
    RHS1      packing[44]  1083
    RHS1      packing[45]  542
    RHS1      packing[46]  747
    RHS1      packing[47]  1098
    RHS1      packing[48]  628
    RHS1      packing[49]  940
BOUNDS
 BV BND1      x[1]    
 BV BND1      x[2]    
 BV BND1      x[3]    
 BV BND1      x[4]    
 BV BND1      x[5]    
 BV BND1      x[6]    
 BV BND1      x[7]    
 BV BND1      x[8]    
 BV BND1      x[9]    
 BV BND1      x[10]   
 BV BND1      x[11]   
 BV BND1      x[12]   
 BV BND1      x[13]   
 BV BND1      x[14]   
 BV BND1      x[15]   
 BV BND1      x[16]   
 BV BND1      x[17]   
 BV BND1      x[18]   
 BV BND1      x[19]   
 BV BND1      x[20]   
ENDATA
